NAME : XML100_1265_20
DIMENSION : 101
NB_CLUSTERS : 5
CLUSTERING_ALG : KMeans
CLUSTERING_PARAMS : k(4)
CLUSTERS
1 0
2 3 8 9 12 13 16 18 20 22 23 26 28 29 35 36 39 41 44 59 63 64 66 74 75 79 82 87 88 91 95 96 97
3 1 4 7 11 14 15 19 24 32 37 43 45 46 49 50 52 54 56 57 60 61 62 71 72 73 76 77 89 90 92 93 94 100
4 2 5 6 10 17 21 25 27 30 31 33 34 38 40 42 47 48 53 55 58 65 67 68 69 78 80 81 83 85 86 98 99
5 51 70 84
EOF